p cnf 120 2266
1 2 3 0
4 5 6 0
7 8 9 0
10 11 12 0
13 14 15 0
16 17 18 0
19 20 21 0
22 23 24 0
25 26 27 0
28 29 30 0
31 32 33 0
34 35 36 0
37 38 39 0
40 41 42 0
43 44 45 0
46 47 48 0
49 50 51 0
52 53 54 0
55 56 57 0
58 59 60 0
61 62 63 0
64 65 66 0
67 68 69 0
70 71 72 0
73 74 75 0
76 77 78 0
79 80 81 0
82 83 84 0
85 86 87 0
88 89 90 0
91 92 93 0
94 95 96 0
97 98 99 0
100 101 102 0
103 104 105 0
106 107 108 0
109 110 111 0
112 113 114 0
115 116 117 0
118 119 120 0
-1 -2 0
-1 -3 0
-2 -3 0
-4 -5 0
-4 -6 0
-5 -6 0
-7 -8 0
-7 -9 0
-8 -9 0
-10 -11 0
-10 -12 0
-11 -12 0
-13 -14 0
-13 -15 0
-14 -15 0
-16 -17 0
-16 -18 0
-17 -18 0
-19 -20 0
-19 -21 0
-20 -21 0
-22 -23 0
-22 -24 0
-23 -24 0
-25 -26 0
-25 -27 0
-26 -27 0
-28 -29 0
-28 -30 0
-29 -30 0
-31 -32 0
-31 -33 0
-32 -33 0
-34 -35 0
-34 -36 0
-35 -36 0
-37 -38 0
-37 -39 0
-38 -39 0
-40 -41 0
-40 -42 0
-41 -42 0
-43 -44 0
-43 -45 0
-44 -45 0
-46 -47 0
-46 -48 0
-47 -48 0
-49 -50 0
-49 -51 0
-50 -51 0
-52 -53 0
-52 -54 0
-53 -54 0
-55 -56 0
-55 -57 0
-56 -57 0
-58 -59 0
-58 -60 0
-59 -60 0
-61 -62 0
-61 -63 0
-62 -63 0
-64 -65 0
-64 -66 0
-65 -66 0
-67 -68 0
-67 -69 0
-68 -69 0
-70 -71 0
-70 -72 0
-71 -72 0
-73 -74 0
-73 -75 0
-74 -75 0
-76 -77 0
-76 -78 0
-77 -78 0
-79 -80 0
-79 -81 0
-80 -81 0
-82 -83 0
-82 -84 0
-83 -84 0
-85 -86 0
-85 -87 0
-86 -87 0
-88 -89 0
-88 -90 0
-89 -90 0
-91 -92 0
-91 -93 0
-92 -93 0
-94 -95 0
-94 -96 0
-95 -96 0
-97 -98 0
-97 -99 0
-98 -99 0
-100 -101 0
-100 -102 0
-101 -102 0
-103 -104 0
-103 -105 0
-104 -105 0
-106 -107 0
-106 -108 0
-107 -108 0
-109 -110 0
-109 -111 0
-110 -111 0
-112 -113 0
-112 -114 0
-113 -114 0
-115 -116 0
-115 -117 0
-116 -117 0
-118 -119 0
-118 -120 0
-119 -120 0
-1 -4 0
-2 -5 0
-3 -6 0
-1 -7 0
-2 -8 0
-3 -9 0
-1 -10 0
-2 -11 0
-3 -12 0
-1 -13 0
-2 -14 0
-3 -15 0
-1 -16 0
-2 -17 0
-3 -18 0
-1 -19 0
-2 -20 0
-3 -21 0
-1 -22 0
-2 -23 0
-3 -24 0
-1 -25 0
-2 -26 0
-3 -27 0
-1 -28 0
-2 -29 0
-3 -30 0
-1 -31 0
-2 -32 0
-3 -33 0
-1 -37 0
-2 -38 0
-3 -39 0
-1 -40 0
-2 -41 0
-3 -42 0
-1 -43 0
-2 -44 0
-3 -45 0
-1 -46 0
-2 -47 0
-3 -48 0
-1 -49 0
-2 -50 0
-3 -51 0
-1 -52 0
-2 -53 0
-3 -54 0
-1 -58 0
-2 -59 0
-3 -60 0
-1 -61 0
-2 -62 0
-3 -63 0
-1 -64 0
-2 -65 0
-3 -66 0
-1 -67 0
-2 -68 0
-3 -69 0
-1 -70 0
-2 -71 0
-3 -72 0
-1 -73 0
-2 -74 0
-3 -75 0
-1 -76 0
-2 -77 0
-3 -78 0
-1 -79 0
-2 -80 0
-3 -81 0
-1 -85 0
-2 -86 0
-3 -87 0
-1 -88 0
-2 -89 0
-3 -90 0
-1 -91 0
-2 -92 0
-3 -93 0
-1 -94 0
-2 -95 0
-3 -96 0
-1 -97 0
-2 -98 0
-3 -99 0
-1 -100 0
-2 -101 0
-3 -102 0
-1 -103 0
-2 -104 0
-3 -105 0
-1 -106 0
-2 -107 0
-3 -108 0
-1 -109 0
-2 -110 0
-3 -111 0
-1 -112 0
-2 -113 0
-3 -114 0
-1 -118 0
-2 -119 0
-3 -120 0
-4 -7 0
-5 -8 0
-6 -9 0
-4 -13 0
-5 -14 0
-6 -15 0
-4 -16 0
-5 -17 0
-6 -18 0
-4 -19 0
-5 -20 0
-6 -21 0
-4 -22 0
-5 -23 0
-6 -24 0
-4 -25 0
-5 -26 0
-6 -27 0
-4 -31 0
-5 -32 0
-6 -33 0
-4 -34 0
-5 -35 0
-6 -36 0
-4 -37 0
-5 -38 0
-6 -39 0
-4 -43 0
-5 -44 0
-6 -45 0
-4 -46 0
-5 -47 0
-6 -48 0
-4 -49 0
-5 -50 0
-6 -51 0
-4 -52 0
-5 -53 0
-6 -54 0
-4 -55 0
-5 -56 0
-6 -57 0
-4 -58 0
-5 -59 0
-6 -60 0
-4 -64 0
-5 -65 0
-6 -66 0
-4 -67 0
-5 -68 0
-6 -69 0
-4 -70 0
-5 -71 0
-6 -72 0
-4 -73 0
-5 -74 0
-6 -75 0
-4 -76 0
-5 -77 0
-6 -78 0
-4 -79 0
-5 -80 0
-6 -81 0
-4 -82 0
-5 -83 0
-6 -84 0
-4 -85 0
-5 -86 0
-6 -87 0
-4 -91 0
-5 -92 0
-6 -93 0
-4 -94 0
-5 -95 0
-6 -96 0
-4 -97 0
-5 -98 0
-6 -99 0
-4 -100 0
-5 -101 0
-6 -102 0
-4 -103 0
-5 -104 0
-6 -105 0
-4 -106 0
-5 -107 0
-6 -108 0
-4 -109 0
-5 -110 0
-6 -111 0
-4 -115 0
-5 -116 0
-6 -117 0
-4 -118 0
-5 -119 0
-6 -120 0
-7 -10 0
-8 -11 0
-9 -12 0
-7 -16 0
-8 -17 0
-9 -18 0
-7 -19 0
-8 -20 0
-9 -21 0
-7 -22 0
-8 -23 0
-9 -24 0
-7 -25 0
-8 -26 0
-9 -27 0
-7 -28 0
-8 -29 0
-9 -30 0
-7 -31 0
-8 -32 0
-9 -33 0
-7 -34 0
-8 -35 0
-9 -36 0
-7 -37 0
-8 -38 0
-9 -39 0
-7 -40 0
-8 -41 0
-9 -42 0
-7 -43 0
-8 -44 0
-9 -45 0
-7 -46 0
-8 -47 0
-9 -48 0
-7 -49 0
-8 -50 0
-9 -51 0
-7 -52 0
-8 -53 0
-9 -54 0
-7 -55 0
-8 -56 0
-9 -57 0
-7 -58 0
-8 -59 0
-9 -60 0
-7 -61 0
-8 -62 0
-9 -63 0
-7 -64 0
-8 -65 0
-9 -66 0
-7 -67 0
-8 -68 0
-9 -69 0
-7 -70 0
-8 -71 0
-9 -72 0
-7 -73 0
-8 -74 0
-9 -75 0
-7 -76 0
-8 -77 0
-9 -78 0
-7 -79 0
-8 -80 0
-9 -81 0
-7 -82 0
-8 -83 0
-9 -84 0
-7 -85 0
-8 -86 0
-9 -87 0
-7 -88 0
-8 -89 0
-9 -90 0
-7 -91 0
-8 -92 0
-9 -93 0
-7 -94 0
-8 -95 0
-9 -96 0
-7 -97 0
-8 -98 0
-9 -99 0
-7 -100 0
-8 -101 0
-9 -102 0
-7 -103 0
-8 -104 0
-9 -105 0
-7 -106 0
-8 -107 0
-9 -108 0
-7 -109 0
-8 -110 0
-9 -111 0
-7 -112 0
-8 -113 0
-9 -114 0
-7 -115 0
-8 -116 0
-9 -117 0
-7 -118 0
-8 -119 0
-9 -120 0
-10 -13 0
-11 -14 0
-12 -15 0
-10 -16 0
-11 -17 0
-12 -18 0
-10 -19 0
-11 -20 0
-12 -21 0
-10 -25 0
-11 -26 0
-12 -27 0
-10 -28 0
-11 -29 0
-12 -30 0
-10 -31 0
-11 -32 0
-12 -33 0
-10 -34 0
-11 -35 0
-12 -36 0
-10 -37 0
-11 -38 0
-12 -39 0
-10 -43 0
-11 -44 0
-12 -45 0
-10 -49 0
-11 -50 0
-12 -51 0
-10 -52 0
-11 -53 0
-12 -54 0
-10 -55 0
-11 -56 0
-12 -57 0
-10 -58 0
-11 -59 0
-12 -60 0
-10 -61 0
-11 -62 0
-12 -63 0
-10 -64 0
-11 -65 0
-12 -66 0
-10 -67 0
-11 -68 0
-12 -69 0
-10 -70 0
-11 -71 0
-12 -72 0
-10 -73 0
-11 -74 0
-12 -75 0
-10 -76 0
-11 -77 0
-12 -78 0
-10 -79 0
-11 -80 0
-12 -81 0
-10 -82 0
-11 -83 0
-12 -84 0
-10 -85 0
-11 -86 0
-12 -87 0
-10 -88 0
-11 -89 0
-12 -90 0
-10 -91 0
-11 -92 0
-12 -93 0
-10 -94 0
-11 -95 0
-12 -96 0
-10 -97 0
-11 -98 0
-12 -99 0
-10 -100 0
-11 -101 0
-12 -102 0
-10 -103 0
-11 -104 0
-12 -105 0
-10 -106 0
-11 -107 0
-12 -108 0
-10 -109 0
-11 -110 0
-12 -111 0
-10 -112 0
-11 -113 0
-12 -114 0
-10 -115 0
-11 -116 0
-12 -117 0
-10 -118 0
-11 -119 0
-12 -120 0
-13 -16 0
-14 -17 0
-15 -18 0
-13 -19 0
-14 -20 0
-15 -21 0
-13 -22 0
-14 -23 0
-15 -24 0
-13 -25 0
-14 -26 0
-15 -27 0
-13 -28 0
-14 -29 0
-15 -30 0
-13 -31 0
-14 -32 0
-15 -33 0
-13 -34 0
-14 -35 0
-15 -36 0
-13 -37 0
-14 -38 0
-15 -39 0
-13 -40 0
-14 -41 0
-15 -42 0
-13 -43 0
-14 -44 0
-15 -45 0
-13 -46 0
-14 -47 0
-15 -48 0
-13 -49 0
-14 -50 0
-15 -51 0
-13 -52 0
-14 -53 0
-15 -54 0
-13 -55 0
-14 -56 0
-15 -57 0
-13 -58 0
-14 -59 0
-15 -60 0
-13 -61 0
-14 -62 0
-15 -63 0
-13 -64 0
-14 -65 0
-15 -66 0
-13 -67 0
-14 -68 0
-15 -69 0
-13 -70 0
-14 -71 0
-15 -72 0
-13 -73 0
-14 -74 0
-15 -75 0
-13 -76 0
-14 -77 0
-15 -78 0
-13 -82 0
-14 -83 0
-15 -84 0
-13 -85 0
-14 -86 0
-15 -87 0
-13 -88 0
-14 -89 0
-15 -90 0
-13 -97 0
-14 -98 0
-15 -99 0
-13 -100 0
-14 -101 0
-15 -102 0
-13 -106 0
-14 -107 0
-15 -108 0
-13 -109 0
-14 -110 0
-15 -111 0
-13 -112 0
-14 -113 0
-15 -114 0
-13 -115 0
-14 -116 0
-15 -117 0
-13 -118 0
-14 -119 0
-15 -120 0
-16 -19 0
-17 -20 0
-18 -21 0
-16 -22 0
-17 -23 0
-18 -24 0
-16 -25 0
-17 -26 0
-18 -27 0
-16 -28 0
-17 -29 0
-18 -30 0
-16 -31 0
-17 -32 0
-18 -33 0
-16 -34 0
-17 -35 0
-18 -36 0
-16 -37 0
-17 -38 0
-18 -39 0
-16 -43 0
-17 -44 0
-18 -45 0
-16 -49 0
-17 -50 0
-18 -51 0
-16 -52 0
-17 -53 0
-18 -54 0
-16 -55 0
-17 -56 0
-18 -57 0
-16 -58 0
-17 -59 0
-18 -60 0
-16 -61 0
-17 -62 0
-18 -63 0
-16 -64 0
-17 -65 0
-18 -66 0
-16 -67 0
-17 -68 0
-18 -69 0
-16 -70 0
-17 -71 0
-18 -72 0
-16 -73 0
-17 -74 0
-18 -75 0
-16 -76 0
-17 -77 0
-18 -78 0
-16 -79 0
-17 -80 0
-18 -81 0
-16 -82 0
-17 -83 0
-18 -84 0
-16 -88 0
-17 -89 0
-18 -90 0
-16 -91 0
-17 -92 0
-18 -93 0
-16 -97 0
-17 -98 0
-18 -99 0
-16 -100 0
-17 -101 0
-18 -102 0
-16 -103 0
-17 -104 0
-18 -105 0
-16 -106 0
-17 -107 0
-18 -108 0
-16 -109 0
-17 -110 0
-18 -111 0
-16 -112 0
-17 -113 0
-18 -114 0
-16 -115 0
-17 -116 0
-18 -117 0
-16 -118 0
-17 -119 0
-18 -120 0
-19 -22 0
-20 -23 0
-21 -24 0
-19 -25 0
-20 -26 0
-21 -27 0
-19 -28 0
-20 -29 0
-21 -30 0
-19 -31 0
-20 -32 0
-21 -33 0
-19 -34 0
-20 -35 0
-21 -36 0
-19 -37 0
-20 -38 0
-21 -39 0
-19 -40 0
-20 -41 0
-21 -42 0
-19 -43 0
-20 -44 0
-21 -45 0
-19 -46 0
-20 -47 0
-21 -48 0
-19 -52 0
-20 -53 0
-21 -54 0
-19 -55 0
-20 -56 0
-21 -57 0
-19 -58 0
-20 -59 0
-21 -60 0
-19 -61 0
-20 -62 0
-21 -63 0
-19 -64 0
-20 -65 0
-21 -66 0
-19 -67 0
-20 -68 0
-21 -69 0
-19 -70 0
-20 -71 0
-21 -72 0
-19 -73 0
-20 -74 0
-21 -75 0
-19 -76 0
-20 -77 0
-21 -78 0
-19 -82 0
-20 -83 0
-21 -84 0
-19 -85 0
-20 -86 0
-21 -87 0
-19 -88 0
-20 -89 0
-21 -90 0
-19 -91 0
-20 -92 0
-21 -93 0
-19 -94 0
-20 -95 0
-21 -96 0
-19 -97 0
-20 -98 0
-21 -99 0
-19 -100 0
-20 -101 0
-21 -102 0
-19 -103 0
-20 -104 0
-21 -105 0
-19 -106 0
-20 -107 0
-21 -108 0
-19 -109 0
-20 -110 0
-21 -111 0
-19 -112 0
-20 -113 0
-21 -114 0
-19 -115 0
-20 -116 0
-21 -117 0
-19 -118 0
-20 -119 0
-21 -120 0
-22 -25 0
-23 -26 0
-24 -27 0
-22 -28 0
-23 -29 0
-24 -30 0
-22 -31 0
-23 -32 0
-24 -33 0
-22 -37 0
-23 -38 0
-24 -39 0
-22 -40 0
-23 -41 0
-24 -42 0
-22 -43 0
-23 -44 0
-24 -45 0
-22 -46 0
-23 -47 0
-24 -48 0
-22 -49 0
-23 -50 0
-24 -51 0
-22 -52 0
-23 -53 0
-24 -54 0
-22 -55 0
-23 -56 0
-24 -57 0
-22 -58 0
-23 -59 0
-24 -60 0
-22 -61 0
-23 -62 0
-24 -63 0
-22 -64 0
-23 -65 0
-24 -66 0
-22 -67 0
-23 -68 0
-24 -69 0
-22 -70 0
-23 -71 0
-24 -72 0
-22 -73 0
-23 -74 0
-24 -75 0
-22 -76 0
-23 -77 0
-24 -78 0
-22 -79 0
-23 -80 0
-24 -81 0
-22 -82 0
-23 -83 0
-24 -84 0
-22 -85 0
-23 -86 0
-24 -87 0
-22 -88 0
-23 -89 0
-24 -90 0
-22 -91 0
-23 -92 0
-24 -93 0
-22 -94 0
-23 -95 0
-24 -96 0
-22 -97 0
-23 -98 0
-24 -99 0
-22 -100 0
-23 -101 0
-24 -102 0
-22 -103 0
-23 -104 0
-24 -105 0
-22 -106 0
-23 -107 0
-24 -108 0
-22 -109 0
-23 -110 0
-24 -111 0
-22 -112 0
-23 -113 0
-24 -114 0
-22 -118 0
-23 -119 0
-24 -120 0
-25 -28 0
-26 -29 0
-27 -30 0
-25 -31 0
-26 -32 0
-27 -33 0
-25 -34 0
-26 -35 0
-27 -36 0
-25 -37 0
-26 -38 0
-27 -39 0
-25 -40 0
-26 -41 0
-27 -42 0
-25 -43 0
-26 -44 0
-27 -45 0
-25 -46 0
-26 -47 0
-27 -48 0
-25 -49 0
-26 -50 0
-27 -51 0
-25 -52 0
-26 -53 0
-27 -54 0
-25 -55 0
-26 -56 0
-27 -57 0
-25 -58 0
-26 -59 0
-27 -60 0
-25 -64 0
-26 -65 0
-27 -66 0
-25 -67 0
-26 -68 0
-27 -69 0
-25 -70 0
-26 -71 0
-27 -72 0
-25 -73 0
-26 -74 0
-27 -75 0
-25 -76 0
-26 -77 0
-27 -78 0
-25 -79 0
-26 -80 0
-27 -81 0
-25 -82 0
-26 -83 0
-27 -84 0
-25 -85 0
-26 -86 0
-27 -87 0
-25 -94 0
-26 -95 0
-27 -96 0
-25 -97 0
-26 -98 0
-27 -99 0
-25 -100 0
-26 -101 0
-27 -102 0
-25 -103 0
-26 -104 0
-27 -105 0
-25 -106 0
-26 -107 0
-27 -108 0
-25 -109 0
-26 -110 0
-27 -111 0
-25 -112 0
-26 -113 0
-27 -114 0
-25 -118 0
-26 -119 0
-27 -120 0
-28 -31 0
-29 -32 0
-30 -33 0
-28 -34 0
-29 -35 0
-30 -36 0
-28 -37 0
-29 -38 0
-30 -39 0
-28 -40 0
-29 -41 0
-30 -42 0
-28 -43 0
-29 -44 0
-30 -45 0
-28 -46 0
-29 -47 0
-30 -48 0
-28 -49 0
-29 -50 0
-30 -51 0
-28 -52 0
-29 -53 0
-30 -54 0
-28 -55 0
-29 -56 0
-30 -57 0
-28 -58 0
-29 -59 0
-30 -60 0
-28 -61 0
-29 -62 0
-30 -63 0
-28 -64 0
-29 -65 0
-30 -66 0
-28 -67 0
-29 -68 0
-30 -69 0
-28 -70 0
-29 -71 0
-30 -72 0
-28 -73 0
-29 -74 0
-30 -75 0
-28 -76 0
-29 -77 0
-30 -78 0
-28 -79 0
-29 -80 0
-30 -81 0
-28 -82 0
-29 -83 0
-30 -84 0
-28 -85 0
-29 -86 0
-30 -87 0
-28 -88 0
-29 -89 0
-30 -90 0
-28 -91 0
-29 -92 0
-30 -93 0
-28 -94 0
-29 -95 0
-30 -96 0
-28 -97 0
-29 -98 0
-30 -99 0
-28 -100 0
-29 -101 0
-30 -102 0
-28 -103 0
-29 -104 0
-30 -105 0
-28 -106 0
-29 -107 0
-30 -108 0
-28 -109 0
-29 -110 0
-30 -111 0
-28 -112 0
-29 -113 0
-30 -114 0
-28 -115 0
-29 -116 0
-30 -117 0
-28 -118 0
-29 -119 0
-30 -120 0
-31 -34 0
-32 -35 0
-33 -36 0
-31 -40 0
-32 -41 0
-33 -42 0
-31 -43 0
-32 -44 0
-33 -45 0
-31 -46 0
-32 -47 0
-33 -48 0
-31 -49 0
-32 -50 0
-33 -51 0
-31 -52 0
-32 -53 0
-33 -54 0
-31 -55 0
-32 -56 0
-33 -57 0
-31 -61 0
-32 -62 0
-33 -63 0
-31 -64 0
-32 -65 0
-33 -66 0
-31 -67 0
-32 -68 0
-33 -69 0
-31 -70 0
-32 -71 0
-33 -72 0
-31 -73 0
-32 -74 0
-33 -75 0
-31 -76 0
-32 -77 0
-33 -78 0
-31 -79 0
-32 -80 0
-33 -81 0
-31 -82 0
-32 -83 0
-33 -84 0
-31 -85 0
-32 -86 0
-33 -87 0
-31 -88 0
-32 -89 0
-33 -90 0
-31 -91 0
-32 -92 0
-33 -93 0
-31 -94 0
-32 -95 0
-33 -96 0
-31 -97 0
-32 -98 0
-33 -99 0
-31 -100 0
-32 -101 0
-33 -102 0
-31 -103 0
-32 -104 0
-33 -105 0
-31 -106 0
-32 -107 0
-33 -108 0
-31 -109 0
-32 -110 0
-33 -111 0
-31 -112 0
-32 -113 0
-33 -114 0
-31 -115 0
-32 -116 0
-33 -117 0
-31 -118 0
-32 -119 0
-33 -120 0
-34 -37 0
-35 -38 0
-36 -39 0
-34 -40 0
-35 -41 0
-36 -42 0
-34 -43 0
-35 -44 0
-36 -45 0
-34 -46 0
-35 -47 0
-36 -48 0
-34 -49 0
-35 -50 0
-36 -51 0
-34 -52 0
-35 -53 0
-36 -54 0
-34 -55 0
-35 -56 0
-36 -57 0
-34 -58 0
-35 -59 0
-36 -60 0
-34 -61 0
-35 -62 0
-36 -63 0
-34 -64 0
-35 -65 0
-36 -66 0
-34 -70 0
-35 -71 0
-36 -72 0
-34 -73 0
-35 -74 0
-36 -75 0
-34 -76 0
-35 -77 0
-36 -78 0
-34 -85 0
-35 -86 0
-36 -87 0
-34 -88 0
-35 -89 0
-36 -90 0
-34 -91 0
-35 -92 0
-36 -93 0
-34 -94 0
-35 -95 0
-36 -96 0
-34 -97 0
-35 -98 0
-36 -99 0
-34 -100 0
-35 -101 0
-36 -102 0
-34 -103 0
-35 -104 0
-36 -105 0
-34 -106 0
-35 -107 0
-36 -108 0
-34 -112 0
-35 -113 0
-36 -114 0
-34 -115 0
-35 -116 0
-36 -117 0
-34 -118 0
-35 -119 0
-36 -120 0
-37 -40 0
-38 -41 0
-39 -42 0
-37 -43 0
-38 -44 0
-39 -45 0
-37 -46 0
-38 -47 0
-39 -48 0
-37 -49 0
-38 -50 0
-39 -51 0
-37 -52 0
-38 -53 0
-39 -54 0
-37 -55 0
-38 -56 0
-39 -57 0
-37 -58 0
-38 -59 0
-39 -60 0
-37 -61 0
-38 -62 0
-39 -63 0
-37 -64 0
-38 -65 0
-39 -66 0
-37 -70 0
-38 -71 0
-39 -72 0
-37 -73 0
-38 -74 0
-39 -75 0
-37 -76 0
-38 -77 0
-39 -78 0
-37 -79 0
-38 -80 0
-39 -81 0
-37 -85 0
-38 -86 0
-39 -87 0
-37 -88 0
-38 -89 0
-39 -90 0
-37 -91 0
-38 -92 0
-39 -93 0
-37 -94 0
-38 -95 0
-39 -96 0
-37 -97 0
-38 -98 0
-39 -99 0
-37 -100 0
-38 -101 0
-39 -102 0
-37 -103 0
-38 -104 0
-39 -105 0
-37 -106 0
-38 -107 0
-39 -108 0
-37 -112 0
-38 -113 0
-39 -114 0
-37 -115 0
-38 -116 0
-39 -117 0
-37 -118 0
-38 -119 0
-39 -120 0
-40 -46 0
-41 -47 0
-42 -48 0
-40 -49 0
-41 -50 0
-42 -51 0
-40 -52 0
-41 -53 0
-42 -54 0
-40 -55 0
-41 -56 0
-42 -57 0
-40 -58 0
-41 -59 0
-42 -60 0
-40 -61 0
-41 -62 0
-42 -63 0
-40 -64 0
-41 -65 0
-42 -66 0
-40 -67 0
-41 -68 0
-42 -69 0
-40 -70 0
-41 -71 0
-42 -72 0
-40 -73 0
-41 -74 0
-42 -75 0
-40 -76 0
-41 -77 0
-42 -78 0
-40 -79 0
-41 -80 0
-42 -81 0
-40 -82 0
-41 -83 0
-42 -84 0
-40 -85 0
-41 -86 0
-42 -87 0
-40 -88 0
-41 -89 0
-42 -90 0
-40 -91 0
-41 -92 0
-42 -93 0
-40 -94 0
-41 -95 0
-42 -96 0
-40 -100 0
-41 -101 0
-42 -102 0
-40 -103 0
-41 -104 0
-42 -105 0
-40 -106 0
-41 -107 0
-42 -108 0
-40 -109 0
-41 -110 0
-42 -111 0
-40 -112 0
-41 -113 0
-42 -114 0
-40 -115 0
-41 -116 0
-42 -117 0
-40 -118 0
-41 -119 0
-42 -120 0
-43 -46 0
-44 -47 0
-45 -48 0
-43 -49 0
-44 -50 0
-45 -51 0
-43 -52 0
-44 -53 0
-45 -54 0
-43 -55 0
-44 -56 0
-45 -57 0
-43 -58 0
-44 -59 0
-45 -60 0
-43 -61 0
-44 -62 0
-45 -63 0
-43 -64 0
-44 -65 0
-45 -66 0
-43 -67 0
-44 -68 0
-45 -69 0
-43 -70 0
-44 -71 0
-45 -72 0
-43 -73 0
-44 -74 0
-45 -75 0
-43 -76 0
-44 -77 0
-45 -78 0
-43 -79 0
-44 -80 0
-45 -81 0
-43 -82 0
-44 -83 0
-45 -84 0
-43 -85 0
-44 -86 0
-45 -87 0
-43 -88 0
-44 -89 0
-45 -90 0
-43 -94 0
-44 -95 0
-45 -96 0
-43 -97 0
-44 -98 0
-45 -99 0
-43 -100 0
-44 -101 0
-45 -102 0
-43 -106 0
-44 -107 0
-45 -108 0
-43 -109 0
-44 -110 0
-45 -111 0
-43 -112 0
-44 -113 0
-45 -114 0
-43 -115 0
-44 -116 0
-45 -117 0
-43 -118 0
-44 -119 0
-45 -120 0
-46 -49 0
-47 -50 0
-48 -51 0
-46 -52 0
-47 -53 0
-48 -54 0
-46 -55 0
-47 -56 0
-48 -57 0
-46 -58 0
-47 -59 0
-48 -60 0
-46 -61 0
-47 -62 0
-48 -63 0
-46 -64 0
-47 -65 0
-48 -66 0
-46 -70 0
-47 -71 0
-48 -72 0
-46 -73 0
-47 -74 0
-48 -75 0
-46 -76 0
-47 -77 0
-48 -78 0
-46 -79 0
-47 -80 0
-48 -81 0
-46 -82 0
-47 -83 0
-48 -84 0
-46 -88 0
-47 -89 0
-48 -90 0
-46 -94 0
-47 -95 0
-48 -96 0
-46 -97 0
-47 -98 0
-48 -99 0
-46 -100 0
-47 -101 0
-48 -102 0
-46 -103 0
-47 -104 0
-48 -105 0
-46 -106 0
-47 -107 0
-48 -108 0
-46 -109 0
-47 -110 0
-48 -111 0
-46 -112 0
-47 -113 0
-48 -114 0
-46 -115 0
-47 -116 0
-48 -117 0
-46 -118 0
-47 -119 0
-48 -120 0
-49 -52 0
-50 -53 0
-51 -54 0
-49 -55 0
-50 -56 0
-51 -57 0
-49 -58 0
-50 -59 0
-51 -60 0
-49 -61 0
-50 -62 0
-51 -63 0
-49 -64 0
-50 -65 0
-51 -66 0
-49 -67 0
-50 -68 0
-51 -69 0
-49 -70 0
-50 -71 0
-51 -72 0
-49 -76 0
-50 -77 0
-51 -78 0
-49 -79 0
-50 -80 0
-51 -81 0
-49 -82 0
-50 -83 0
-51 -84 0
-49 -85 0
-50 -86 0
-51 -87 0
-49 -88 0
-50 -89 0
-51 -90 0
-49 -91 0
-50 -92 0
-51 -93 0
-49 -94 0
-50 -95 0
-51 -96 0
-49 -97 0
-50 -98 0
-51 -99 0
-49 -100 0
-50 -101 0
-51 -102 0
-49 -103 0
-50 -104 0
-51 -105 0
-49 -106 0
-50 -107 0
-51 -108 0
-49 -109 0
-50 -110 0
-51 -111 0
-49 -112 0
-50 -113 0
-51 -114 0
-49 -115 0
-50 -116 0
-51 -117 0
-49 -118 0
-50 -119 0
-51 -120 0
-52 -55 0
-53 -56 0
-54 -57 0
-52 -58 0
-53 -59 0
-54 -60 0
-52 -61 0
-53 -62 0
-54 -63 0
-52 -64 0
-53 -65 0
-54 -66 0
-52 -67 0
-53 -68 0
-54 -69 0
-52 -70 0
-53 -71 0
-54 -72 0
-52 -73 0
-53 -74 0
-54 -75 0
-52 -76 0
-53 -77 0
-54 -78 0
-52 -82 0
-53 -83 0
-54 -84 0
-52 -85 0
-53 -86 0
-54 -87 0
-52 -88 0
-53 -89 0
-54 -90 0
-52 -91 0
-53 -92 0
-54 -93 0
-52 -94 0
-53 -95 0
-54 -96 0
-52 -97 0
-53 -98 0
-54 -99 0
-52 -103 0
-53 -104 0
-54 -105 0
-52 -106 0
-53 -107 0
-54 -108 0
-52 -109 0
-53 -110 0
-54 -111 0
-52 -112 0
-53 -113 0
-54 -114 0
-52 -115 0
-53 -116 0
-54 -117 0
-52 -118 0
-53 -119 0
-54 -120 0
-55 -58 0
-56 -59 0
-57 -60 0
-55 -61 0
-56 -62 0
-57 -63 0
-55 -64 0
-56 -65 0
-57 -66 0
-55 -70 0
-56 -71 0
-57 -72 0
-55 -76 0
-56 -77 0
-57 -78 0
-55 -79 0
-56 -80 0
-57 -81 0
-55 -82 0
-56 -83 0
-57 -84 0
-55 -85 0
-56 -86 0
-57 -87 0
-55 -88 0
-56 -89 0
-57 -90 0
-55 -91 0
-56 -92 0
-57 -93 0
-55 -100 0
-56 -101 0
-57 -102 0
-55 -103 0
-56 -104 0
-57 -105 0
-55 -106 0
-56 -107 0
-57 -108 0
-55 -109 0
-56 -110 0
-57 -111 0
-55 -112 0
-56 -113 0
-57 -114 0
-55 -115 0
-56 -116 0
-57 -117 0
-55 -118 0
-56 -119 0
-57 -120 0
-58 -61 0
-59 -62 0
-60 -63 0
-58 -64 0
-59 -65 0
-60 -66 0
-58 -67 0
-59 -68 0
-60 -69 0
-58 -73 0
-59 -74 0
-60 -75 0
-58 -76 0
-59 -77 0
-60 -78 0
-58 -79 0
-59 -80 0
-60 -81 0
-58 -85 0
-59 -86 0
-60 -87 0
-58 -88 0
-59 -89 0
-60 -90 0
-58 -91 0
-59 -92 0
-60 -93 0
-58 -94 0
-59 -95 0
-60 -96 0
-58 -97 0
-59 -98 0
-60 -99 0
-58 -100 0
-59 -101 0
-60 -102 0
-58 -103 0
-59 -104 0
-60 -105 0
-58 -109 0
-59 -110 0
-60 -111 0
-58 -112 0
-59 -113 0
-60 -114 0
-58 -115 0
-59 -116 0
-60 -117 0
-58 -118 0
-59 -119 0
-60 -120 0
-61 -64 0
-62 -65 0
-63 -66 0
-61 -67 0
-62 -68 0
-63 -69 0
-61 -70 0
-62 -71 0
-63 -72 0
-61 -76 0
-62 -77 0
-63 -78 0
-61 -79 0
-62 -80 0
-63 -81 0
-61 -82 0
-62 -83 0
-63 -84 0
-61 -85 0
-62 -86 0
-63 -87 0
-61 -88 0
-62 -89 0
-63 -90 0
-61 -91 0
-62 -92 0
-63 -93 0
-61 -94 0
-62 -95 0
-63 -96 0
-61 -97 0
-62 -98 0
-63 -99 0
-61 -100 0
-62 -101 0
-63 -102 0
-61 -103 0
-62 -104 0
-63 -105 0
-61 -106 0
-62 -107 0
-63 -108 0
-61 -109 0
-62 -110 0
-63 -111 0
-61 -112 0
-62 -113 0
-63 -114 0
-61 -115 0
-62 -116 0
-63 -117 0
-61 -118 0
-62 -119 0
-63 -120 0
-64 -67 0
-65 -68 0
-66 -69 0
-64 -70 0
-65 -71 0
-66 -72 0
-64 -73 0
-65 -74 0
-66 -75 0
-64 -76 0
-65 -77 0
-66 -78 0
-64 -79 0
-65 -80 0
-66 -81 0
-64 -85 0
-65 -86 0
-66 -87 0
-64 -88 0
-65 -89 0
-66 -90 0
-64 -91 0
-65 -92 0
-66 -93 0
-64 -94 0
-65 -95 0
-66 -96 0
-64 -97 0
-65 -98 0
-66 -99 0
-64 -100 0
-65 -101 0
-66 -102 0
-64 -103 0
-65 -104 0
-66 -105 0
-64 -106 0
-65 -107 0
-66 -108 0
-64 -109 0
-65 -110 0
-66 -111 0
-64 -112 0
-65 -113 0
-66 -114 0
-64 -115 0
-65 -116 0
-66 -117 0
-67 -70 0
-68 -71 0
-69 -72 0
-67 -73 0
-68 -74 0
-69 -75 0
-67 -76 0
-68 -77 0
-69 -78 0
-67 -79 0
-68 -80 0
-69 -81 0
-67 -82 0
-68 -83 0
-69 -84 0
-67 -85 0
-68 -86 0
-69 -87 0
-67 -88 0
-68 -89 0
-69 -90 0
-67 -91 0
-68 -92 0
-69 -93 0
-67 -94 0
-68 -95 0
-69 -96 0
-67 -97 0
-68 -98 0
-69 -99 0
-67 -100 0
-68 -101 0
-69 -102 0
-67 -103 0
-68 -104 0
-69 -105 0
-67 -106 0
-68 -107 0
-69 -108 0
-67 -109 0
-68 -110 0
-69 -111 0
-67 -112 0
-68 -113 0
-69 -114 0
-67 -115 0
-68 -116 0
-69 -117 0
-67 -118 0
-68 -119 0
-69 -120 0
-70 -73 0
-71 -74 0
-72 -75 0
-70 -76 0
-71 -77 0
-72 -78 0
-70 -79 0
-71 -80 0
-72 -81 0
-70 -85 0
-71 -86 0
-72 -87 0
-70 -88 0
-71 -89 0
-72 -90 0
-70 -91 0
-71 -92 0
-72 -93 0
-70 -97 0
-71 -98 0
-72 -99 0
-70 -100 0
-71 -101 0
-72 -102 0
-70 -103 0
-71 -104 0
-72 -105 0
-70 -106 0
-71 -107 0
-72 -108 0
-70 -109 0
-71 -110 0
-72 -111 0
-70 -115 0
-71 -116 0
-72 -117 0
-70 -118 0
-71 -119 0
-72 -120 0
-73 -76 0
-74 -77 0
-75 -78 0
-73 -82 0
-74 -83 0
-75 -84 0
-73 -85 0
-74 -86 0
-75 -87 0
-73 -88 0
-74 -89 0
-75 -90 0
-73 -91 0
-74 -92 0
-75 -93 0
-73 -94 0
-74 -95 0
-75 -96 0
-73 -97 0
-74 -98 0
-75 -99 0
-73 -100 0
-74 -101 0
-75 -102 0
-73 -103 0
-74 -104 0
-75 -105 0
-73 -106 0
-74 -107 0
-75 -108 0
-73 -109 0
-74 -110 0
-75 -111 0
-73 -112 0
-74 -113 0
-75 -114 0
-73 -115 0
-74 -116 0
-75 -117 0
-76 -79 0
-77 -80 0
-78 -81 0
-76 -82 0
-77 -83 0
-78 -84 0
-76 -85 0
-77 -86 0
-78 -87 0
-76 -88 0
-77 -89 0
-78 -90 0
-76 -91 0
-77 -92 0
-78 -93 0
-76 -97 0
-77 -98 0
-78 -99 0
-76 -100 0
-77 -101 0
-78 -102 0
-76 -103 0
-77 -104 0
-78 -105 0
-76 -109 0
-77 -110 0
-78 -111 0
-76 -112 0
-77 -113 0
-78 -114 0
-76 -115 0
-77 -116 0
-78 -117 0
-76 -118 0
-77 -119 0
-78 -120 0
-79 -85 0
-80 -86 0
-81 -87 0
-79 -88 0
-80 -89 0
-81 -90 0
-79 -91 0
-80 -92 0
-81 -93 0
-79 -94 0
-80 -95 0
-81 -96 0
-79 -97 0
-80 -98 0
-81 -99 0
-79 -103 0
-80 -104 0
-81 -105 0
-79 -106 0
-80 -107 0
-81 -108 0
-79 -109 0
-80 -110 0
-81 -111 0
-79 -112 0
-80 -113 0
-81 -114 0
-79 -118 0
-80 -119 0
-81 -120 0
-82 -85 0
-83 -86 0
-84 -87 0
-82 -88 0
-83 -89 0
-84 -90 0
-82 -94 0
-83 -95 0
-84 -96 0
-82 -97 0
-83 -98 0
-84 -99 0
-82 -100 0
-83 -101 0
-84 -102 0
-82 -103 0
-83 -104 0
-84 -105 0
-82 -109 0
-83 -110 0
-84 -111 0
-82 -112 0
-83 -113 0
-84 -114 0
-82 -118 0
-83 -119 0
-84 -120 0
-85 -88 0
-86 -89 0
-87 -90 0
-85 -91 0
-86 -92 0
-87 -93 0
-85 -97 0
-86 -98 0
-87 -99 0
-85 -100 0
-86 -101 0
-87 -102 0
-85 -103 0
-86 -104 0
-87 -105 0
-85 -106 0
-86 -107 0
-87 -108 0
-85 -109 0
-86 -110 0
-87 -111 0
-85 -112 0
-86 -113 0
-87 -114 0
-85 -115 0
-86 -116 0
-87 -117 0
-85 -118 0
-86 -119 0
-87 -120 0
-88 -91 0
-89 -92 0
-90 -93 0
-88 -94 0
-89 -95 0
-90 -96 0
-88 -97 0
-89 -98 0
-90 -99 0
-88 -100 0
-89 -101 0
-90 -102 0
-88 -103 0
-89 -104 0
-90 -105 0
-88 -106 0
-89 -107 0
-90 -108 0
-88 -109 0
-89 -110 0
-90 -111 0
-88 -112 0
-89 -113 0
-90 -114 0
-88 -115 0
-89 -116 0
-90 -117 0
-88 -118 0
-89 -119 0
-90 -120 0
-91 -94 0
-92 -95 0
-93 -96 0
-91 -100 0
-92 -101 0
-93 -102 0
-91 -103 0
-92 -104 0
-93 -105 0
-91 -106 0
-92 -107 0
-93 -108 0
-91 -109 0
-92 -110 0
-93 -111 0
-91 -112 0
-92 -113 0
-93 -114 0
-91 -115 0
-92 -116 0
-93 -117 0
-91 -118 0
-92 -119 0
-93 -120 0
-94 -97 0
-95 -98 0
-96 -99 0
-94 -100 0
-95 -101 0
-96 -102 0
-94 -103 0
-95 -104 0
-96 -105 0
-94 -106 0
-95 -107 0
-96 -108 0
-94 -109 0
-95 -110 0
-96 -111 0
-94 -112 0
-95 -113 0
-96 -114 0
-94 -115 0
-95 -116 0
-96 -117 0
-94 -118 0
-95 -119 0
-96 -120 0
-97 -100 0
-98 -101 0
-99 -102 0
-97 -103 0
-98 -104 0
-99 -105 0
-97 -106 0
-98 -107 0
-99 -108 0
-97 -109 0
-98 -110 0
-99 -111 0
-97 -112 0
-98 -113 0
-99 -114 0
-97 -115 0
-98 -116 0
-99 -117 0
-97 -118 0
-98 -119 0
-99 -120 0
-100 -103 0
-101 -104 0
-102 -105 0
-100 -106 0
-101 -107 0
-102 -108 0
-100 -109 0
-101 -110 0
-102 -111 0
-100 -112 0
-101 -113 0
-102 -114 0
-100 -115 0
-101 -116 0
-102 -117 0
-100 -118 0
-101 -119 0
-102 -120 0
-103 -106 0
-104 -107 0
-105 -108 0
-103 -109 0
-104 -110 0
-105 -111 0
-103 -115 0
-104 -116 0
-105 -117 0
-103 -118 0
-104 -119 0
-105 -120 0
-106 -115 0
-107 -116 0
-108 -117 0
-106 -118 0
-107 -119 0
-108 -120 0
-109 -112 0
-110 -113 0
-111 -114 0
-109 -115 0
-110 -116 0
-111 -117 0
-109 -118 0
-110 -119 0
-111 -120 0
-112 -118 0
-113 -119 0
-114 -120 0
-115 -118 0
-116 -119 0
-117 -120 0
